<instance format="XCSP3" type="CSP">
  <variables>
    <var id="x0"> 1 11 13 16 </var>
    <var id="x1"> 1 2 7 </var>
    <var id="x2"> 9 11 </var>
    <var id="x3"> 1 9 11 17 </var>
    <var id="x4"> 1 9 11 13 17 </var>
    <var id="x5"> 13 17 </var>
    <var id="x6"> 2 7 9 11 13 16 </var>
    <var id="x7"> 1 2 16 </var>
    <var id="x8"> 0 11 13 </var>
    <var id="x9"> 0 2 6 7 </var>
    <var id="x10"> 0 6 9 11 13 </var>
    <var id="x11"> 7 9 11 </var>
    <var id="x12"> 2 6 7 9 12 13 </var>
    <var id="x13"> 0 9 11..13 </var>
    <var id="x14"> 7 11 13 </var>
    <var id="x15"> 6 7 11 12 </var>
    <var id="x16"> 5 16 </var>
    <var id="x17"> 0 2 4..6 </var>
    <var id="x18"> 0 4 5 8 10 </var>
    <var id="x19"> 0 4 6 10 </var>
    <var id="x20"> 4 8 </var>
    <var id="x21"> 0 2 16 </var>
    <var id="x22"> 0 2 4 5 8 16 </var>
    <var id="x23"> 6 8 10 </var>
    <var id="x24"> 0 1 10 11 13 16 </var>
    <var id="x25"> 0 10 11 13 </var>
    <var id="x26"> 0 11..13 16 </var>
    <var id="x27"> 0 1 11 13 </var>
    <var id="x28"> 10 12 13 </var>
    <var id="x29"> 0 1 16 </var>
    <var id="x30"> 0 3 10 16 </var>
    <var id="x31"> 3 10..12 </var>
    <var id="x32"> 0 8 9 11 </var>
    <var id="x33"> 7..9 11 </var>
    <var id="x34"> 7 9 13 </var>
    <var id="x35"> 0 8 9 11 13 17 </var>
    <var id="x36"> 8 13 17 </var>
    <var id="x37"> 7 11 13 </var>
    <var id="x38"> 7 8 11 17 </var>
    <var id="x39"> 5 9 11 17 </var>
    <var id="x40"> 0 5 6 9 17 </var>
    <var id="x41"> 0 4 9 11 17 </var>
    <var as="x41" id="x42"/>
    <var id="x43"> 0 4 6 11 </var>
    <var id="x44"> 4 5 11 </var>
    <var id="x45"> 0 6 17 </var>
    <var id="x46"> 0 1 4 11 13 14 </var>
    <var id="x47"> 0 1 4 6 14 </var>
    <var id="x48"> 0 4 11 15 </var>
    <var id="x49"> 0 4 6 11 13 15 </var>
    <var id="x50"> 0 1 4 11 15 </var>
    <var id="x51"> 4 13 15 </var>
    <var id="x52"> 0 1 4 14 </var>
    <var id="x53"> 4 11 13 15 </var>
    <var id="x54"> 5 11 12 </var>
    <var id="x55"> 0 5 7 </var>
    <var id="x56"> 0 3 4 11 15 </var>
    <var id="x57"> 0 4 11 12 </var>
    <var id="x58"> 0 7 11 12 </var>
    <var id="x59"> 0 4 11 12 15 </var>
    <var id="x60"> 0 4 5 </var>
    <var id="x61"> 3..5 7 11 15 </var>
    <var id="x62"> 0 1 4 6 7 </var>
    <var id="x63"> 0 6 7 10 </var>
    <var id="x64"> 1 4 7 11 </var>
    <var id="x65"> 0 4 11 12 </var>
    <var id="x66"> 0 7 11 12 </var>
    <var id="x67"> 0 4 6 11 12 </var>
    <var id="x68"> 0 6 10 </var>
    <var id="x69"> 6 7 10..12 </var>
    <var id="x70"> 0 4 5 9 10 </var>
    <var id="x71"> 0 4 9 10 </var>
    <var id="x72"> 4 9 14 </var>
    <var id="x73"> 5 9 14 </var>
    <var id="x74"> 0 3 4 9 17 </var>
    <var id="x75"> 0 9 </var>
    <var id="x76"> 3..5 </var>
    <var id="x77"> 0 3 10 14 17 </var>
    <var id="x78"> 1 5 11 14 </var>
    <var id="x79"> 0 1 5 7 14 </var>
    <var id="x80"> 0 5 7 10 14 </var>
    <var id="x81"> 0 1 11 </var>
    <var id="x82"> 0 1 8 11 </var>
    <var id="x83"> 0 8 11 </var>
    <var id="x84"> 0 1 5 8 14 </var>
    <var id="x85"> 7 8 10 11 </var>
    <var id="x86"> 5 9 11 14 16 </var>
    <var id="x87"> 5 9 14 </var>
    <var id="x88"> 4 9 11 15 </var>
    <var id="x89"> 4 8 9 11 14 15 </var>
    <var id="x90"> 5 9 14 </var>
    <var id="x91"> 4 9 11 16 </var>
    <var id="x92"> 9 11 16 </var>
    <var id="x93"> 4 8 11 15 </var>
    <var id="x94"> 10 13 14 16 </var>
    <var id="x95"> 10 14 17 </var>
    <var id="x96"> 12..14 </var>
    <var id="x97"> 10 12 13 15 17 </var>
    <var id="x98"> 12 13 16 </var>
    <var id="x99"> 13 15 16 </var>
    <var id="x100"> 10 14..17 </var>
    <var id="x101"> 4 9 15 </var>
    <var id="x102"> 1 4 7 9 14 15 </var>
    <var id="x103"> 7 9 12 14 </var>
    <var id="x104"> 1 3 4 9 15 </var>
    <var id="x105"> 1 4 9 </var>
    <var id="x106"> 4 12 15 </var>
    <var id="x107"> 1 4 14 </var>
    <var id="x108"> 3 14 15 </var>
    <var id="x109"> 0 1 4 13 </var>
    <var id="x110"> 1 9 </var>
    <var id="x111"> 0 1 4 6 </var>
    <var id="x112"> 0 6 9 </var>
    <var id="x113"> 0 4 6 9 13 15 </var>
    <var id="x114"> 1 4 8 9 15 </var>
    <var id="x115"> 0 1 4 8 9 13 </var>
    <var id="x116"> 6 8 </var>
    <var id="x117"> 4 10 14 16 </var>
    <var id="x118"> 4 9 16 </var>
    <var id="x119"> 4 8 9 17 </var>
    <var id="x120"> 4 6 8 </var>
    <var id="x121"> 4 8 14 16 </var>
    <var id="x122"> 4 16 </var>
    <var id="x123"> 6 10 14 16 17 </var>
    <var id="x124"> 6 8 10 17 </var>
    <var id="x125"> 0 4 11 </var>
    <var id="x126"> 5 11 17 </var>
    <var id="x127"> 0 2 4 5 </var>
    <var id="x128"> 0 4 5 8 11 15 </var>
    <var id="x129"> 0 4 11 15 </var>
    <var id="x130"> 2 5 </var>
    <var id="x131"> 4 8 15 17 </var>
    <var id="x132"> 0 15 17 </var>
    <var id="x133"> 9 11 12 14 16 </var>
    <var id="x134"> 4 9 11 15 </var>
    <var id="x135"> 9 14 </var>
    <var id="x136"> 9 12..14 </var>
    <var id="x137"> 4 9 11 15 </var>
    <var id="x138"> 4 9 11..13 16 </var>
    <var id="x139"> 4 12 13 15 </var>
    <var id="x140"> 9 11..13 16 </var>
  </variables>
  <constraints>
    <group>
      <allDifferent> %... </allDifferent>
      <args> x0 x1 x2 x3 x4 x5 x6 x7 </args>
      <args> x8 x9 x10 x11 x12 x13 x14 x15 </args>
      <args> x16 x17 x18 x19 x20 x21 x22 x23 </args>
      <args> x24 x25 x26 x27 x28 x29 x30 x31 </args>
      <args> x32 x33 x34 x35 x36 x37 x38 </args>
      <args> x39 x40 x41 x42 x43 x44 x45 </args>
      <args> x46 x47 x48 x49 x50 x51 x52 x53 </args>
      <args> x54 x55 x56 x57 x58 x59 x60 x61 </args>
      <args> x62 x63 x64 x65 x66 x67 x68 x69 </args>
      <args> x70 x71 x72 x73 x74 x75 x76 x77 </args>
      <args> x78 x79 x80 x81 x82 x83 x84 x85 </args>
      <args> x86 x87 x88 x89 x90 x91 x92 x93 </args>
      <args> x94 x95 x96 x97 x98 x99 x100 </args>
      <args> x101 x102 x103 x104 x105 x106 x107 x108 </args>
      <args> x109 x110 x111 x112 x113 x114 x115 x116 </args>
      <args> x117 x118 x119 x120 x121 x122 x123 x124 </args>
      <args> x125 x126 x127 x128 x129 x130 x131 x132 </args>
      <args> x133 x134 x135 x136 x137 x138 x139 x140 </args>
      <args> x0 x8 x24 x46 x94 x109 x117 x125 </args>
      <args> x16 x39 x54 x78 x86 x110 x126 x133 </args>
      <args> x1 x9 x17 x47 x62 x79 x111 x127 </args>
      <args> x2 x18 x32 x48 x70 x101 x128 x134 </args>
      <args> x40 x55 x63 x80 x87 x95 x112 x135 </args>
      <args> x10 x19 x25 x49 x71 x88 x113 x129 </args>
      <args> x11 x20 x33 x64 x72 x89 x102 x114 </args>
      <args> x12 x34 x73 x90 x96 x103 x130 x136 </args>
      <args> x3 x41 x50 x56 x74 x81 x104 x137 </args>
      <args> x13 x26 x57 x65 x91 x118 x138 </args>
      <args> x4 x27 x35 x42 x82 x105 x115 x119 </args>
      <args> x5 x28 x36 x51 x97 x131 x139 </args>
      <args> x6 x21 x58 x66 x75 x92 x98 x140 </args>
      <args> x43 x59 x67 x83 x93 x106 x120 </args>
      <args> x7 x22 x29 x52 x60 x84 x107 x121 </args>
      <args> x14 x37 x44 x53 x61 x76 x99 x122 </args>
      <args> x30 x45 x68 x77 x100 x108 x123 x132 </args>
      <args> x15 x23 x31 x38 x69 x85 x116 x124 </args>
    </group>
  </constraints>
</instance>

